h -1 2 0
h 3 4 0
h -2 3 0
h 5 -4 0
h -5 2 0
264420889270032190 -6 0
2240399693270302698 -7 0
h 8 1 0
1795850297440087097 -8 0
h -9 0
h -9 10 0
2305352436635110166 -10 0
1226200336076865241 -11 0
113630311431132704 -12 0
h 13 9 0
1699008640313093043 -13 0
h 14 -3 0
2363540985387703042 -14 0
h 15 0
1928008304483239121 -15 0
h 16 0
2283302367626356784 -16 0
188831885708847206 -17 0
2038197926066782323 -18 0
